c This is QMaxSAT 2017 based on 14.07
c This is Glucose 3.0
c This is MiniSat 2.2.0
c WARNING: for repeatability, setting FPU to use double precision
c card = mrwto, comp = 0, pmodel = 0, narr = 3, mct = 14, verb = 0
cr firstCPXsol 0 0 0
c top = 80229
c |  Number of variables:    512                                              |
c |  Number of clauses:      6389                                             |
c |  Weight of hard clauses: 80229                                            |
c |  Number of soft clauses: 702                                              |
c |  Number of unit soft clauses: 0                                           |
c |  Maximum Cardinality (by unit): 301080       (0           )               |
c last restart ## conflicts  :  0 53 
o 2872 | cpuTime 0.006302 s
c Sum of weights = 100360
c A number of soft clauses remained = 234
c MRWTO encoding for Pseudo-Boolean Constraints
c sizeMax=2872
c No.0 Divisor=15	generated by pow1
c No.1 Divisor=15	generated by pow1
c No.2 Divisor=15	generated by pow1
c p0= 15	p1= 15	p2= 15	
c number of digits = 4
c linkingVar[0].size = 15, linkingVar[1].size = 15, linkingVar[2].size = 13, linkingVar[3].size = 1, 
c Pseudo-Boolean Constraints: 6122 variables and 72658 clauses
c Sum of weights = 100360
c A number of soft clauses remained = 234
c MRWTO encoding for Pseudo-Boolean Constraints
c sizeMax=2872
c No.0 Divisor=15	generated by pow1
c No.1 Divisor=15	generated by pow1
c No.2 Divisor=15	generated by pow1
c p0= 15	p1= 15	p2= 15	
c number of digits = 4
c linkingVar[0].size = 15, linkingVar[1].size = 15, linkingVar[2].size = 13, linkingVar[3].size = 1, 
c Pseudo-Boolean Constraints: 6122 variables and 72658 clauses
c Sum of weights = 100360
c A number of soft clauses remained = 234
c MRWTO encoding for Pseudo-Boolean Constraints
c sizeMax=2872
c No.0 Divisor=15	generated by pow1
c No.1 Divisor=15	generated by pow1
c No.2 Divisor=15	generated by pow1
c p0= 15	p1= 15	p2= 15	
c number of digits = 4
c linkingVar[0].size = 15, linkingVar[1].size = 15, linkingVar[2].size = 13, linkingVar[3].size = 1, 
c Pseudo-Boolean Constraints: 6122 variables and 72658 clauses
c last restart ## conflicts  :  452 699 
o 2646 | cpuTime 0.087781 s
c last restart ## conflicts  :  246 613 
o 2637 | cpuTime 0.137287 s
c last restart ## conflicts  :  31 1088 
o 2325 | cpuTime 0.142803 s
c last restart ## conflicts  :  303 708 
o 2303 | cpuTime 0.158149 s
c last restart ## conflicts  :  31 792 
o 2194 | cpuTime 0.227538 s
c last restart ## conflicts  :  75 753 
o 2113 | cpuTime 0.36589 s
c last restart ## conflicts  :  134 704 
o 2097 | cpuTime 0.468743 s
c last restart ## conflicts  :  158 609 
o 1964 | cpuTime 0.605865 s
c last restart ## conflicts  :  113 769 
o 1949 | cpuTime 1.53181 s
c last restart ## conflicts  :  151765 835 
o 1927 | cpuTime 61.9963 s
c last restart ## conflicts  :  1001 615 
o 1923 | cpuTime 62.3143 s
s UNKNOWN
c Search is stopped by a limit (maybe time-limit)
cr positiVarArr: [ | 15(1->13) | 29(1->11) | 46(1->12) | 60(2->10) | 74(3->8) | 85(4->3) | 112(5->14) | 118(6->4) | 131(7->1) | 155(8->9) | 161(9->1) | 185(10->7) | 196(11->2) | 215(12->5) | 232(13->6) | 242(14->1) | ]
cr the 1-th chain: [ 1->13->6->4->3->8->9->1 ] (#non-depot=6) {#cumul.=7}
cr the 2-th chain: [ 1->11->2->10->7->1 ] (#non-depot=4) {#cumul.=11}
cr the 3-th chain: [ 1->12->5->14->1 ] (#non-depot=3) {#cumul.=14}
c Latest Answer = 0 by 12 loops
c restarts              : 62088
c conflicts             : 11551107       (3211 /sec)
c decisions             : 17821348       (0.00 % random) (4954 /sec)
c propagations          : 534200240      (148493 /sec)
c conflict literals     : 734071436      (15.84 % deleted)
c Memory used           : 328.00 MB
c CPU time              : 3597.47 s
